BEGIN IONS
ID=CCMSLIB00009943341
PEPMASS=319.234
SMILES=N/A
ENERGY
84.07893 0.097777046
85.089134 0.011645093
86.09706 0.004234698
100.03976 0.06932546
101.10777 0.0032539468
102.09175 0.122606665
112.04235 0.017330665
119.11815 0.03751926
120.08099 0.005240985
122.09672 0.009558946
137.10732 0.017277153
138.09137 0.019971548
140.07056 0.008027415
154.08623 0.037333693
165.10223 0.03522433
168.1021 0.008432882
183.11285 0.0038660704
201.12337 0.29713857
319.23392 0.19423552
END IONS
