BEGIN IONS
ID=CNP0265573
PEPMASS=319.2339
SMILES=OC1C(O)C(N)CC(N)C1OC2OC(CCC2N)C(NC)C
ENERGY
157.13354 62.96
302.20743 13.58
319.23398 100.0
ENERGY1
56.04948 5.67
58.06513 6.52
71.06037 7.83
98.06004 6.58
100.07569 29.13
126.09134 39.3
127.08659 13.47
128.0706 19.21
129.10224 15.29
139.12297 18.84
140.10699 93.95
145.09715 23.04
157.13354 79.05
163.10772 7.88
301.22342 28.27
302.20743 10.12
319.23398 100.0
ENERGY2
44.04948 23.42
56.04948 39.11
58.06513 75.94
70.06513 51.21
71.06037 19.5
72.08078 32.76
84.08078 69.59
85.07602 7.97
86.06004 19.31
96.08078 13.39
98.09643 22.76
100.07569 43.26
102.09134 18.76
112.11208 9.84
116.0706 100.0
126.09134 10.35
128.0706 8.59
144.10191 17.47
155.11789 12.96
163.10772 13.69
191.10263 22.23
204.13427 8.12
216.17065 12.48
228.17065 10.72
230.1863 14.64
244.16557 14.23
246.18122 23.76
257.1972 11.7
259.21285 12.59
301.22342 19.6
319.23398 11.23
END IONS
