BEGIN IONS
ID=CNP0141471
PEPMASS=319.2339
SMILES=OC1C(OC2OC(CCC2N)C(N)C)C(N)CC(OC)C1N
ENERGY
143.11789 43.13
302.20743 23.25
319.23398 100.0
ENERGY1
56.04948 8.14
100.07569 9.5
126.09134 40.0
128.10699 12.16
141.10224 11.51
142.08626 21.24
143.11789 21.21
159.1128 26.74
161.12845 4.6
177.12337 8.11
270.18122 6.37
301.22342 11.91
302.20743 19.18
319.23398 100.0
ENERGY2
42.03383 31.4
44.04948 99.31
56.04948 100.0
58.06513 46.94
70.06513 95.24
74.06004 24.55
84.08078 32.42
85.07602 21.66
98.06004 20.6
98.09643 14.87
100.07569 24.84
102.09134 14.33
117.10224 14.92
126.09134 28.91
127.08659 24.62
128.10699 15.5
129.10224 46.39
131.11789 17.28
141.10224 13.7
143.11789 24.21
144.10191 14.76
145.09715 26.23
159.1128 32.58
175.10772 18.89
177.12337 20.58
200.13935 16.37
218.14992 16.36
230.14992 20.04
232.16557 25.3
260.19687 28.86
317.21833 46.83
END IONS
