BEGIN IONS
ID=CNP0140228
PEPMASS=319.2339
SMILES=OC1C(OC2OC(CN)CCC2N)C(N)CC(OC)C1NC
ENERGY
302.20743 18.75
319.23398 100.0
ENERGY1
88.07569 6.94
100.07569 13.2
112.07569 49.49
114.09134 14.18
116.10699 5.62
129.10224 34.29
131.11789 7.03
173.12845 24.98
191.13902 43.3
270.18122 6.69
276.19178 8.08
285.18088 21.97
301.22342 6.36
302.20743 100.0
319.23398 73.97
ENERGY2
44.04948 56.8
56.04948 100.0
58.06513 45.28
70.06513 13.72
72.04439 7.9
74.06004 19.56
84.08078 38.78
88.07569 10.7
97.07602 9.26
99.09167 44.63
100.07569 20.74
101.10732 15.14
102.09134 6.91
103.12297 8.05
106.08626 11.82
112.07569 7.81
114.09134 12.8
115.08659 10.5
128.0706 10.78
129.10224 13.14
130.08626 25.38
145.09715 6.34
147.1128 15.17
157.13354 6.0
189.12337 7.61
191.13902 14.76
202.155 8.68
232.16557 18.45
246.18122 8.49
248.16048 7.45
287.20777 5.95
END IONS
