BEGIN IONS
ID=CNP0106404
PEPMASS=319.2339
SMILES=OC1CC(N)C(OC2OC(CCC2N)C(N)C)C(O)C1NC
ENERGY
143.11789 27.5
302.20743 26.3
319.23398 100.0
ENERGY1
100.07569 3.8
126.09134 26.1
128.0706 3.46
128.10699 4.47
141.10224 4.75
143.11789 15.25
159.1128 15.58
177.12337 6.39
288.19178 4.65
301.22342 15.21
302.20743 20.55
317.21833 5.22
319.23398 100.0
ENERGY2
44.04948 100.0
56.04948 61.75
58.06513 23.6
70.06513 95.94
72.04439 8.76
74.06004 9.17
76.07569 11.86
84.08078 33.79
86.06004 18.93
97.07602 17.26
98.06004 12.17
98.09643 11.46
99.09167 9.22
111.09167 14.67
113.10732 8.64
114.05495 11.48
126.09134 11.86
141.10224 11.92
143.11789 19.76
157.09715 9.89
159.1128 16.15
171.07642 9.27
175.10772 16.66
177.12337 22.22
203.10263 8.61
205.11828 8.55
218.14992 20.0
220.16557 13.1
244.16557 9.5
246.18122 24.83
301.22342 15.04
END IONS
