BEGIN IONS
ID=CCMSLIB00009968081
PEPMASS=449.222
SMILES=N/A
ENERGY
103.0545 0.03711312
104.05804 0.002785602
106.06543 0.010727633
113.107864 0.0054072677
130.06612 0.0038986548
131.05003 0.20015468
132.0532 0.018141959
133.07695 0.0066731647
141.1027 0.009081024
145.07709 0.10828353
146.08015 0.008187717
157.07736 0.008307022
169.09862 0.0064052073
194.09755 0.0034612594
206.0977 0.0028072621
221.1086 0.010766237
233.10817 0.09739572
234.11118 0.014702623
256.1451 0.003237496
263.1188 0.038069047
264.1219 0.0052381787
275.1187 0.27276725
276.12213 0.03881152
284.13995 0.0074954648
431.2091 0.067096986
432.21243 0.012984395
END IONS
