BEGIN IONS
ID=CCMSLIB00010011978
PEPMASS=449.224
SMILES=CC(=O)N(CCCCCNC(=O)C(CC(=O)NCCCN(C(=O)C)O)(CC(=O)O)O)O
ENERGY
100.07563 0.0028456382
102.09121 0.00658498
112.07554 0.013459635
115.08653 0.0039922255
116.070526 0.020776814
124.93307 0.0020327878
129.10242 0.0027434637
130.08644 0.0019386881
130.50414 0.0022902335
133.09706 0.0544837
144.10194 0.0071244184
157.09706 0.0023478132
159.87782 0.0022458567
161.12842 0.08200592
168.06572 0.0031884413
169.23083 0.002497294
171.1127 0.07677833
173.12857 0.0034414912
183.07622 0.0061267675
190.00438 0.0021799398
193.06071 0.004680398
194.0814 0.002510456
201.0869 0.010571782
203.08162 0.0035117315
211.07108 0.0025129446
214.07117 0.0027915845
217.11797 0.005578938
219.09799 0.004010242
220.59811 0.0021161009
221.09229 0.0030002657
229.08194 0.0090514105
231.07143 0.0030943337
231.16998 0.01297837
232.17375 0.002956152
239.1027 0.00758509
243.09756 0.067573756
244.10208 0.0026839771
247.09244 0.0036544465
256.13 0.0028149846
257.1131 0.0113393525
261.1073 0.0847578
262.11148 0.0059728995
274.13934 0.0051290374
275.11755 0.03109819
276.12714 0.0037406434
281.113 0.00488652
289.10324 0.009738381
291.91394 0.0025680326
299.12354 0.0065329475
311.1715 0.0037142625
316.14957 0.0051940437
317.13437 0.053475413
318.13705 0.0040148795
323.79233 0.003131514
330.30658 0.0026736686
346.22653 0.0025760448
353.18106 0.0044045793
365.104 0.0030467273
365.3655 0.0021475519
367.15808 0.0043015387
371.19238 0.014190691
389.20108 0.05691472
390.20706 0.0047712135
395.19107 0.0026896135
401.33542 0.0024553142
405.19647 0.0052309046
407.21255 0.0054800455
413.2028 0.012308621
431.21335 0.09438747
432.21545 0.010285928
449.1621 0.013719031
449.2239 0.070361
END IONS
