BEGIN IONS
ID=CNP0055991
PEPMASS=449.2239
SMILES=O=C(NC=1C=CC=CC1CCCCC=2C=CC=CC2NC(=O)C=3C=CC=CC3)C=4C=CC=CC4
ENERGY
105.03349 14.79
449.22235 100.0
ENERGY1
105.03349 100.0
252.13829 4.62
328.16959 12.28
345.19614 4.43
431.21179 2.89
449.22235 20.18
ENERGY2
65.03858 9.89
77.03858 41.36
79.05423 78.25
91.05423 27.26
93.06988 73.48
95.08553 16.78
105.03349 100.0
111.08044 26.21
113.09609 26.04
205.10118 24.37
220.11208 14.09
222.12773 17.59
224.14338 25.18
449.22235 26.78
END IONS
