BEGIN IONS
ID=CNP0422990
PEPMASS=449.2239
SMILES=FC(F)(F)C1=CC=CC(=C1)C2=NC=CC(=N2)CC3C(NC4CCOCC4)CC(O)C3CO
ENERGY
350.14747 13.56
406.21007 6.88
434.20499 51.04
452.21555 100.0
ENERGY1
70.06513 6.65
85.06479 8.71
102.09134 12.47
198.14886 6.26
225.06341 11.17
237.06341 14.89
239.07906 10.44
294.12126 4.96
333.12092 5.14
337.15222 6.02
339.13149 6.36
350.14747 17.14
351.13149 9.24
366.14239 4.82
368.15804 5.03
378.17877 18.42
404.19442 18.83
406.21007 6.6
408.18934 11.56
416.19442 10.55
420.18934 10.62
422.20499 16.87
424.22064 9.65
432.20932 9.41
434.20499 48.53
452.21555 100.0
ENERGY2
56.04948 16.96
70.06513 14.49
82.06513 14.09
83.04914 20.05
84.08078 21.35
85.06479 100.0
96.08078 16.07
128.10699 16.78
198.05251 14.08
237.06341 27.3
239.07906 23.54
333.12092 18.4
335.13657 43.6
337.15222 15.72
350.14747 19.0
352.16312 13.67
364.16312 18.92
366.14239 13.6
376.16312 21.9
378.17877 29.69
394.17369 22.69
404.19442 29.05
406.17369 33.3
406.21007 47.22
408.18934 82.42
410.20499 25.04
416.19442 15.02
422.20499 17.36
432.18934 28.98
434.20499 27.66
450.1999 28.2
END IONS
