BEGIN IONS
ID=CNP0199754
PEPMASS=449.2239
SMILES=O=C(N(C)CC=1C=CC=CC1)C(C)C2CCC3(C)CC=4SC(=NC4C(C)C3C2O)C
ENERGY
91.05423 82.49
122.09643 40.16
288.14166 43.34
306.15223 60.95
427.24138 100.0
ENERGY1
91.05423 100.0
102.09134 13.99
114.0372 5.58
120.08078 35.99
122.09643 19.37
124.02155 5.07
176.10699 5.05
184.16959 5.22
204.08415 5.98
206.0998 15.81
216.13829 6.0
230.0998 12.67
232.11545 6.87
234.14886 8.35
260.14675 12.33
262.1624 8.01
274.12601 5.04
278.15731 17.52
280.17296 5.37
288.14166 21.8
290.15731 5.86
306.15223 26.27
315.15256 5.74
316.22711 6.0
331.18386 12.13
335.17878 6.88
395.21516 9.77
397.23081 14.01
399.24646 6.75
409.23081 31.84
427.24138 62.78
ENERGY2
44.04948 6.37
79.05423 7.31
91.05423 100.0
93.06988 4.97
98.06004 2.28
102.09134 1.88
106.06513 8.91
120.08078 3.74
122.09643 2.68
124.11208 14.93
126.0372 1.92
126.12773 8.08
162.09134 2.49
180.08415 2.23
204.08415 1.86
206.0998 1.58
218.15394 2.31
228.08415 3.36
230.0998 3.51
236.11036 4.1
244.07906 3.91
250.12601 1.81
256.17296 2.12
262.1624 2.44
278.15731 2.8
308.16788 2.08
352.22711 1.77
383.17878 2.45
395.21516 2.02
425.22573 2.31
427.24138 3.84
END IONS
