BEGIN IONS
ID=CNP0042846
PEPMASS=449.2239
SMILES=O=C1C=2C(=CC=C(NC3=CC=C(C(=C3)C)C)C2C(=O)C4C=CC=CC14)NC5=CC=C(C(=C5)C)C
ENERGY
122.09643 8.51
449.22235 100.0
ENERGY1
328.13321 14.82
369.15975 4.95
395.1754 11.03
397.19105 5.13
409.19105 8.46
423.2067 7.53
433.19105 14.21
447.2067 4.92
449.22235 100.0
ENERGY2
79.05423 10.12
91.05423 12.12
120.08078 13.76
328.13321 10.33
343.18049 26.95
353.12845 13.17
367.1441 30.1
369.15975 37.68
377.12845 22.36
379.1441 41.45
391.1441 37.23
393.15975 39.05
395.1754 21.35
397.19105 57.12
405.15975 30.62
407.1754 18.08
409.19105 12.91
417.15975 41.04
419.1754 11.31
421.22744 24.29
423.2067 22.1
431.1754 43.14
433.19105 40.66
447.2067 100.0
END IONS
