BEGIN IONS
ID=CNP0051320
PEPMASS=449.2239
SMILES=O=S(=O)(NCC1C=C(C)C(CC2=NN=C(O2)C=3C=CC=CC3F)CC1C(C)C)CCC
ENERGY
283.12412 66.4
285.13977 83.05
287.15542 28.26
311.15542 14.83
327.18672 100.0
450.22212 22.65
ENERGY1
163.14813 9.96
269.10847 20.85
271.12412 44.8
273.13977 13.54
283.12412 38.13
285.13977 100.0
287.15542 68.96
297.13977 8.75
311.15542 23.72
313.17107 23.11
327.18672 94.23
ENERGY2
39.02293 19.91
41.03858 34.85
43.05423 91.78
64.96918 100.0
79.98008 20.42
93.99573 75.5
96.01138 25.64
100.96918 24.34
102.98483 38.59
105.99573 30.8
106.03211 62.76
108.01138 45.23
110.02703 16.38
115.98008 18.7
120.01138 18.27
120.04776 72.76
122.02703 49.77
122.06341 91.22
129.99573 46.23
137.13248 17.99
163.14813 52.88
165.16378 19.85
179.06152 60.31
269.10847 17.05
283.12412 55.82
285.13977 26.51
311.15542 18.39
315.18672 28.64
319.21802 18.8
327.18672 69.79
450.22212 16.02
END IONS
