BEGIN IONS
ID=CNP0471505
PEPMASS=449.2239
SMILES=O=C(NCCN1CCOCC1)C2CC(O)C(O)C3NC(=S)N(C=4C=C(C=C(C4)C)C)C23
ENERGY
362.15329 2.36
449.2217 100.0
ENERGY1
319.11109 6.61
362.15329 10.04
449.2217 100.0
ENERGY2
45.03349 18.27
70.02874 16.07
100.07569 22.93
103.08659 29.27
105.06988 22.94
114.09134 46.11
129.10224 24.03
164.05285 16.1
185.03792 22.05
187.05358 52.41
205.0794 70.99
247.08996 28.21
257.12845 18.37
273.10561 50.96
275.08488 18.24
275.12126 33.95
288.11651 17.4
291.11618 100.0
293.13183 39.54
301.13289 25.16
319.11109 19.67
344.14272 21.19
362.15329 18.86
391.17984 22.59
405.19549 28.68
417.19549 30.96
421.1904 41.36
421.22679 17.07
433.1904 21.3
447.20605 18.83
449.2217 59.05
END IONS
