BEGIN IONS
ID=CNP0016203
PEPMASS=449.2239
SMILES=O=C(NC1C(C=2SC=CC2)N(CCCC=3C=CC=CC3)CCC1(O)C)C4CCCC4
ENERGY
69.06988 9.47
427.24138 100.0
ENERGY1
69.06988 46.14
71.08553 7.53
91.05423 5.55
97.06479 11.91
119.08553 8.98
124.07569 3.74
126.09134 4.45
168.10191 4.26
172.13321 2.73
196.13321 3.4
218.15394 2.92
230.15394 3.09
291.15256 3.93
296.14675 10.18
298.1624 4.07
302.15731 2.82
305.16821 2.77
314.15731 32.82
316.17296 5.96
327.2067 9.22
329.22235 3.76
335.17878 2.98
409.23081 22.35
427.24138 100.0
ENERGY2
43.05423 3.11
44.97935 2.97
69.06988 51.24
71.08553 5.85
79.05423 9.8
85.01065 12.29
91.05423 100.0
93.06988 14.52
96.08078 4.68
97.01065 8.18
97.06479 18.39
105.06988 8.57
115.05423 4.29
117.06988 8.07
119.08553 48.06
125.13248 3.6
126.0372 6.59
130.06513 7.45
134.09643 3.95
153.03686 2.59
206.0998 2.75
224.11036 5.83
226.12601 2.93
290.12093 2.67
296.16788 2.63
298.1624 2.47
316.17296 8.05
355.18386 5.19
383.17878 3.28
411.21008 9.09
427.24138 14.83
END IONS
