BEGIN IONS
ID=CNP0439609
PEPMASS=449.2239
SMILES=O=C(NCCN1CCOCC1)C2CC(O)C(O)C3NC(=NC=4C=C(C=C(C4)C)C)SC23
ENERGY
431.21114 7.44
449.2217 100.0
ENERGY1
114.09134 9.79
120.08078 4.88
301.10053 5.75
328.13255 4.76
344.14272 5.44
362.15329 8.16
431.21114 16.82
449.2217 100.0
ENERGY2
43.02907 26.42
70.02874 15.76
79.05423 38.82
100.07569 19.37
105.06988 100.0
114.09134 67.63
120.08078 83.12
122.09643 17.96
129.10224 33.06
132.08078 24.87
145.07602 29.33
147.09167 18.43
162.0372 28.1
164.05285 42.62
185.12845 17.2
273.10561 22.96
275.08488 16.14
291.11618 28.79
293.13183 39.81
318.1482 27.17
362.15329 38.69
391.17984 15.22
405.19549 17.37
407.21114 18.5
417.19549 16.63
419.21114 19.14
421.1904 67.6
431.21114 22.33
433.1904 31.26
447.20605 53.9
449.2217 44.02
END IONS
