BEGIN IONS
ID=CNP0467958
PEPMASS=449.2239
SMILES=O=C(O)C(O)(CC(=O)NCCCN(O)C(=O)C)CC(=O)NCCCCCN(O)C(=O)C
ENERGY
89.07094 3.69
91.08659 5.64
116.0706 3.87
133.09715 32.84
187.10772 3.31
289.10303 5.62
356.18161 3.89
374.19218 22.56
389.20308 3.52
407.21364 15.37
431.21364 5.71
449.22421 100.0
ENERGY1
56.04948 23.1
58.06513 8.7
89.07094 25.47
91.08659 9.25
112.07569 5.6
114.09134 3.52
115.08659 55.49
116.0706 100.0
117.06585 4.6
126.09134 8.68
128.10699 3.92
131.0815 4.53
133.09715 89.66
159.07642 3.16
242.1023 2.69
244.11795 3.51
263.12376 2.54
275.12376 5.14
289.10303 4.72
299.12376 2.66
301.13941 3.11
317.13433 4.65
319.14998 3.14
323.18128 2.57
356.18161 11.65
374.19218 16.05
389.20308 4.9
407.21364 3.53
431.21364 8.91
449.22421 6.13
ENERGY2
43.01784 10.4
46.02874 5.75
56.04948 14.86
65.03858 6.65
67.05423 23.64
69.06988 100.0
71.08553 9.2
72.08078 6.41
84.08078 13.76
86.09643 21.34
89.07094 7.54
100.07569 5.43
102.09134 5.02
112.07569 7.36
114.09134 9.57
116.0706 31.25
118.08626 9.45
124.07569 6.42
126.09134 15.63
128.10699 11.94
133.09715 37.01
143.11789 10.69
144.10191 9.24
171.1128 6.0
214.071 7.12
289.10303 5.39
299.16015 8.71
328.1867 5.29
356.18161 6.71
372.17653 5.56
387.22381 8.0
END IONS
