BEGIN IONS
ID=NPA021612
PEPMASS=449.2239
SMILES=CC(=O)N(CCCCCNC(=O)C(CC(=O)NCCCN(C(=O)C)O)(CC(=O)O)O)O
ENERGY
110.06004 3.54
112.07569 4.41
133.09715 6.72
187.10772 4.94
263.12376 3.43
356.18161 12.18
374.19218 92.45
389.20308 6.88
407.21364 24.16
431.21364 7.28
449.22421 100.0
ENERGY1
56.04948 14.79
84.04439 7.98
84.08078 14.47
86.06004 8.12
86.09643 29.89
88.11208 8.17
89.07094 14.68
112.07569 15.71
115.08659 34.42
116.0706 93.57
133.09715 100.0
143.11789 7.72
159.07642 19.67
244.11795 7.75
263.12376 15.39
275.12376 10.89
289.10303 10.87
291.15506 8.15
301.13941 13.82
314.17105 7.56
317.13433 7.46
325.19693 7.92
356.18161 50.06
358.19726 14.53
374.19218 55.83
389.20308 38.93
405.19799 7.54
407.21364 13.07
413.20308 25.14
431.21364 56.53
449.22421 22.44
ENERGY2
43.01784 24.13
56.04948 12.33
67.05423 26.54
69.06988 84.97
82.06513 13.06
84.08078 18.85
86.09643 42.17
88.11208 17.77
98.06004 29.6
100.07569 26.77
112.07569 52.92
114.09134 100.0
116.0706 35.54
118.08626 33.39
126.09134 15.05
128.10699 13.53
133.09715 38.41
143.11789 20.12
171.1128 42.1
175.10772 26.96
214.071 22.32
273.10811 12.73
289.10303 16.71
291.11868 33.34
297.1445 23.08
299.16015 43.94
302.13466 12.6
316.11393 12.49
326.17105 15.98
354.16596 15.22
356.18161 22.59
END IONS
