BEGIN IONS
ID=CCMSLIB00005766939
PEPMASS=575.376
SMILES=CCN1N=C(CC2=CC=CC=C2)C=C1C1CCN(C[C@H]2C[C@@H](C[C@@H]2C2=CC=CC(F)=C2)N(C)[C@H](C(C)C)C(O)=O)CC1
ENERGY
53.034527 0.0047258735
55.0542 0.018299818
56.0495 0.012471912
58.0651 0.040985197
65.0385 0.006233412
68.0495 0.0041127
70.0651 0.03971086
79.0542 0.02246804
81.05418 0.0048393477
82.0651 0.0043310346
83.03197 0.014273336
84.0808 0.012188164
86.0964 0.025911393
91.0542 0.1609987
94.0652 0.0047406317
95.055756 0.013684569
96.0807 0.008301222
98.0964 0.014936685
103.0542 0.0038258426
105.055954 0.006077713
107.059425 0.003560626
109.0448 0.26532406
115.0543 0.0036003925
121.066956 0.0037817997
127.0542 0.0027104635
129.0699 0.0049285768
133.04971 0.046669003
134.05737 0.0051430897
135.07745 0.013166105
145.0648 0.015502706
146.0526 0.025266502
147.06253 0.0763324
149.08508 0.016417498
155.0603 0.0205742
159.0605 0.012183359
160.0683 0.03689948
161.1074 0.006937928
211.1231 0.0054827393
213.1385 0.004470193
225.13869 0.0049818116
239.1543 0.0029506478
END IONS
