BEGIN IONS
ID=CCMSLIB00009941521
PEPMASS=575.376
SMILES=N/A
ENERGY
84.08037 0.041415423
100.039955 0.005035626
102.09089 0.01391586
119.11782 0.007825578
138.09123 0.0040938044
154.08609 0.008856584
158.11746 0.009898891
165.10213 0.022522757
166.08829 0.007951942
183.11269 0.024848422
201.12308 0.22851616
202.12637 0.00967028
257.1491 0.26662812
258.15268 0.016153304
283.12845 0.007819466
319.2333 0.16132995
320.23676 0.011464711
375.2596 0.01942587
383.22833 0.0030658124
401.2389 0.036550283
402.2421 0.0036791866
457.26498 0.025639553
458.26816 0.003091619
575.37213 0.06060084
END IONS
