BEGIN IONS
ID=CCMSLIB00009992435
PEPMASS=575.374
SMILES=N/A
ENERGY
84.08 0.040312186
100.036 0.0072383895
102.089 0.015818276
154.084 0.010792306
158.117 0.008689081
165.101 0.012623691
183.113 0.02344919
201.123 0.24888119
202.125 0.020414867
257.149 0.2554627
258.15 0.017749835
259.141 0.006001324
283.128 0.0053792587
319.233 0.18424633
320.232 0.026145289
333.08 0.002839422
375.255 0.018242022
401.236 0.03870617
402.238 0.0063255057
446.176 0.00263184
457.256 0.0417736
458.257 0.006277419
END IONS
