BEGIN IONS
ID=CCMSLIB00005763423
PEPMASS=575.376
SMILES=CCN1N=C(CC2=CC=CC=C2)C=C1C1CCN(C[C@H]2C[C@@H](C[C@@H]2C2=CC=CC(F)=C2)N(C)[C@H](C(C)C)C(O)=O)CC1
ENERGY
55.0542 0.0041084867
56.0495 0.0047788187
58.0651 0.043544628
70.0651 0.040635783
79.0542 0.021862322
82.0651 0.0043350654
84.08081 0.029204898
86.096405 0.03203828
91.0542 0.046844393
95.056335 0.0016268827
96.0807 0.010650052
98.09639 0.09776534
105.05252 0.0013264017
109.0448 0.13170856
123.0917 0.0019463617
132.1019 0.0022627332
133.0448 0.017324941
135.06879 0.0022857615
146.0525 0.0017185347
147.0604 0.09243378
149.08208 0.016505543
155.0761 0.0024924194
160.0683 0.018308645
161.1073 0.002606842
173.076 0.002583393
175.0917 0.059616793
187.1229 0.024778804
192.1494 0.0059606726
199.1231 0.0032580944
201.1387 0.0014857951
204.12088 0.011773569
206.134 0.012429353
211.1231 0.0035466608
213.1388 0.009229555
225.1385 0.01771987
239.1542 0.03017217
241.1698 0.01381971
242.16512 0.0014114993
253.17 0.0021303713
254.165 0.0018758926
256.1489 0.002635868
258.1653 0.0044004456
270.1963 0.04777748
282.1963 0.084608115
304.1709 0.001366474
416.2497 0.013941541
475.3231 0.015162368
END IONS
