BEGIN IONS
ID=CCMSLIB00005763603
PEPMASS=575.376
SMILES=CCN1N=C(CC2=CC=CC=C2)C=C1C1CCN(C[C@H]2C[C@@H](C[C@@H]2C2=CC=CC(F)=C2)N(C)[C@H](C(C)C)C(O)=O)CC1
ENERGY
53.03498 0.0066547827
55.0543 0.022048835
56.0495 0.010524908
58.0651 0.03243977
65.0386 0.014588313
67.04944 0.003512293
68.0495 0.0038909817
70.0651 0.025616223
71.0729 0.004723175
79.0542 0.017907202
80.0495 0.003891444
81.05057 0.006742819
82.06521 0.0035512066
83.0292 0.033217262
84.0808 0.0041872826
86.0964 0.018292276
89.0386 0.0035147674
91.0542 0.18518867
94.0651 0.0061828834
95.05416 0.016530007
96.0808 0.004239592
98.0965 0.0045194095
103.05419 0.006813548
105.05367 0.0092675015
107.058334 0.0062130997
109.0448 0.2640733
115.0542 0.006691996
121.06772 0.0033611874
123.07313 0.002840528
127.05421 0.0057163206
128.0622 0.004048473
129.07 0.0036970512
133.05016 0.050765555
134.0526 0.0055005588
135.07988 0.010265283
145.0648 0.01835692
146.0526 0.043725926
147.06393 0.038255647
149.0863 0.0057969345
153.0699 0.0029192425
155.0604 0.02580988
159.0605 0.026158428
160.0683 0.024959728
173.05716 0.0027987403
END IONS
