BEGIN IONS
ID=CCMSLIB00005761016
PEPMASS=575.376
SMILES=CCN1N=C(CC2=CC=CC=C2)C=C1C1CCN(C[C@H]2C[C@@H](C[C@@H]2C2=CC=CC(F)=C2)N(C)[C@H](C(C)C)C(O)=O)CC1
ENERGY
55.0542 0.00839928
56.0495 0.01048385
58.065105 0.04526298
68.0494 0.0022975474
70.0651 0.046012428
79.0542 0.025854807
82.0652 0.0056309416
83.03711 0.004123654
84.080795 0.024989001
86.0964 0.028022267
91.0543 0.1075778
94.0652 0.0033717428
95.06007 0.006850329
96.0808 0.011059084
98.096504 0.043549497
105.05388 0.002330132
109.0449 0.21910325
123.08683 0.0030532852
129.0699 0.0026761352
133.04677 0.03377658
135.07614 0.009261912
137.1074 0.0025836204
145.0649 0.0061659385
146.0527 0.008986241
147.06215 0.1180975
149.08302 0.026290689
155.06616 0.010428934
159.0604 0.003199329
160.0683 0.034437504
161.1074 0.008233442
163.1228 0.0031868876
173.076 0.0029789256
175.0918 0.017357012
187.12291 0.014487882
192.1498 0.002593273
199.12302 0.0036537768
204.12178 0.006916662
206.1342 0.0024258983
211.1231 0.008192255
213.1384 0.008110118
225.1386 0.015542921
239.1543 0.016592134
241.16992 0.0108350795
254.1655 0.0022473575
270.1964 0.0077446713
282.1965 0.010370066
444.2812 0.0046552503
END IONS
