BEGIN IONS
ID=CNP0178826
PEPMASS=575.3763
SMILES=OC1=CC=C(C=2N=C3CCC4(CC)CCCN5CCC3(C12)C54)C6N7C=8C=CC=CC8C9=C7C%10N(CC9)CCCC%10(CC)C6
ENERGY
547.34314 20.49
575.37444 100.0
ENERGY1
547.34314 12.81
575.37444 100.0
ENERGY2
124.11208 5.11
142.06513 6.31
144.08078 27.54
188.14338 5.91
192.17468 5.57
251.15428 7.77
253.16993 23.64
255.18558 7.46
295.18049 7.34
297.19614 12.67
309.19614 4.65
321.19614 7.36
323.21179 23.81
347.21179 5.06
491.31692 6.27
517.29619 4.87
545.32749 14.61
547.34314 24.06
547.37952 4.11
549.35879 8.42
559.34314 35.88
573.35879 33.57
575.37444 100.0
END IONS
