BEGIN IONS
ID=CNP0170155
PEPMASS=575.3763
SMILES=OC12NC=3C(=CC=CC3C42CCN5CC(CC)C(C1=C)CC54)CC6C7=NC=8C=CC=CC8C79CCN%10CC(CC)C6CC%109
ENERGY
557.36387 4.09
575.37444 100.0
ENERGY1
519.31184 3.41
545.32749 5.11
557.36387 15.33
575.37444 100.0
ENERGY2
259.12297 7.56
263.15428 11.56
265.16993 28.92
267.18558 33.69
309.19614 13.39
323.21179 8.82
355.21688 9.51
357.23253 7.8
368.21212 8.69
370.22777 21.81
438.25399 14.26
480.30094 8.93
482.31659 8.75
517.29619 11.91
519.31184 18.37
521.32749 5.89
527.31692 17.19
529.33257 15.92
531.34822 12.42
533.32749 6.02
545.32749 39.83
547.34314 41.94
549.35879 93.3
559.34314 7.85
573.35879 18.37
575.37444 100.0
END IONS
