BEGIN IONS
ID=CNP0352842
PEPMASS=575.3763
SMILES=O=C1C2(C=3C=CC=CC3N)CCN4CC(CC)C(CC42)C15CC6=C7N(C=8C=CC=CC8C79CCN%10CC(CC)C6CC%109)C5
ENERGY
557.36387 3.43
575.37444 100.0
ENERGY1
547.37952 24.09
573.35879 6.63
575.37444 100.0
ENERGY2
65.03858 19.56
94.06513 5.98
132.08078 8.64
134.09643 10.83
146.09643 8.6
160.07569 29.0
241.16993 5.61
243.18558 23.86
245.20123 5.81
265.16993 15.08
271.18049 18.45
273.19614 8.77
275.15428 7.27
279.18558 27.76
301.16993 13.0
303.18558 29.82
305.20123 77.86
333.19614 11.34
450.25399 17.88
462.29037 9.47
478.28529 8.19
516.30094 8.36
530.31659 22.42
543.34822 8.16
545.32749 14.31
545.36387 13.21
547.34314 13.48
547.37952 45.5
559.34314 6.3
573.35879 100.0
575.37444 96.53
END IONS
