BEGIN IONS
ID=CNP0435005
PEPMASS=575.3763
SMILES=O=C(NCCCCCN(O)C(=O)CC)CCC(=O)N(O)CCCCCNC(=O)CCC(=O)N(O)CCCCCN
ENERGY
86.09643 4.8
119.11789 4.35
175.1441 3.49
286.21252 11.08
319.23398 8.59
486.32861 37.0
488.34426 3.21
501.33951 5.78
519.35007 11.14
557.36572 17.27
558.34974 5.64
575.37629 100.0
ENERGY1
69.06988 13.59
86.09643 43.05
101.10732 10.15
112.07569 5.5
117.10224 15.83
119.11789 29.34
140.10699 7.33
145.09715 5.24
175.1441 6.08
201.12337 39.89
286.21252 46.55
301.22342 11.81
319.23398 36.78
345.21325 6.16
368.218 5.86
371.2289 5.13
383.2289 8.3
401.23946 76.07
403.25511 6.96
457.26568 10.67
468.31805 16.57
469.30206 13.39
472.31296 11.77
486.32861 100.0
501.33951 29.65
502.32353 6.64
519.35007 27.3
540.33918 5.92
557.36572 63.63
558.34974 15.64
575.37629 47.97
ENERGY2
46.02874 12.97
57.03349 4.19
58.06513 5.06
69.06988 9.49
82.06513 7.38
84.08078 13.76
86.09643 36.29
88.0393 3.98
100.07569 7.81
102.09134 4.81
115.08659 4.22
116.03422 6.06
117.10224 37.79
119.11789 28.81
130.04987 3.87
184.09682 5.63
201.12337 100.0
203.13902 24.35
230.14992 4.37
257.14958 4.49
272.16048 9.49
286.21252 12.82
319.23398 7.31
358.23365 6.2
385.24455 10.56
401.23946 11.69
403.25511 19.38
472.27657 6.49
486.32861 10.91
492.37556 3.97
501.33951 7.38
END IONS
