BEGIN IONS
ID=CNP0136537
PEPMASS=449.2239
SMILES=FC(F)(F)C=1C=CC=C(C1)N2CCN(CC2)CC3OCC(NCC=4C=CC=CC4O)C3O
ENERGY
107.04914 14.79
329.14714 18.47
346.17369 7.76
452.21555 100.0
ENERGY1
79.05423 30.2
107.04914 42.38
243.11036 17.84
311.13657 8.86
327.13149 11.32
328.16312 70.08
329.14714 50.27
331.16279 21.25
338.14747 18.62
340.16312 28.48
346.17369 62.85
356.15804 16.27
358.17369 100.0
422.20499 16.24
424.22064 28.26
434.20499 15.18
452.21555 86.45
ENERGY2
99.09167 38.11
106.06513 29.3
107.04914 100.0
116.04948 50.32
124.07569 16.84
186.05251 69.15
188.06816 43.41
206.11756 17.19
227.07906 20.2
229.09471 74.65
239.07906 20.23
243.11036 46.51
245.12601 38.38
251.13902 21.86
255.11036 17.79
257.12601 28.6
273.12092 35.75
285.12092 37.32
287.13657 59.29
289.15222 23.15
303.13149 25.8
311.13657 31.97
326.14992 30.3
328.16312 74.23
329.14714 24.89
331.16279 25.37
346.17369 23.74
422.20499 25.6
424.22064 20.79
434.20499 17.16
452.21555 19.93
END IONS
