BEGIN IONS
ID=CNP0186810
PEPMASS=462.1716
SMILES=N#CC(OC1CC(OC2CC(CO)C(O)C(O)C2O)C(O)C(O)C1O)C=3C=CC=CC3
ENERGY
116.04948 99.03
134.06004 8.55
143.07027 17.48
149.08084 8.03
161.08084 13.39
262.10738 20.31
280.11795 16.41
289.12818 28.61
303.10744 8.9
305.12309 15.28
307.13874 16.25
366.15473 17.79
404.17038 65.12
422.18094 97.15
440.19151 100.0
ENERGY1
40.01818 7.12
79.05423 6.42
90.03383 3.89
91.05423 14.29
105.03349 4.04
107.04914 7.76
116.04948 100.0
124.11208 4.26
132.04439 14.19
134.06004 10.78
143.07027 5.14
145.08592 3.24
161.08084 7.84
163.0601 17.71
253.10705 9.8
262.10738 6.46
280.11795 15.82
303.10744 3.37
305.12309 7.0
322.12851 5.14
362.15981 5.35
366.15473 13.95
378.15473 3.23
380.17038 6.18
392.17038 4.99
394.18603 3.29
395.17004 6.77
404.17038 12.26
410.18094 9.38
422.18094 36.82
440.19151 11.08
ENERGY2
39.02293 14.09
40.01818 16.54
41.03858 13.44
43.05423 8.97
45.03349 11.07
57.03349 9.01
61.02841 9.55
65.03858 36.52
79.05423 16.5
87.04406 10.91
88.01818 9.29
89.05971 13.58
90.03383 50.53
91.05423 63.79
116.04948 100.0
118.06513 12.6
119.07027 16.33
132.04439 14.46
134.06004 10.23
147.06519 27.63
148.07569 23.91
161.08084 12.01
163.0601 12.19
177.07575 13.68
306.1336 11.61
322.12851 8.96
324.14416 10.04
366.15473 10.02
378.15473 13.07
380.17038 11.75
410.18094 10.48
END IONS
