BEGIN IONS
ID=CNP0035760
PEPMASS=462.1716
SMILES=O=C(OCC1C=2C=CC=CC2C=3C=CC=CC31)NC(C(=O)O)CCCCNC(=O)C(F)(F)F
ENERGY
179.08553 100.0
419.1577 33.8
465.16318 29.98
ENERGY1
177.06988 12.08
179.08553 100.0
185.13248 3.01
187.14813 4.01
195.08044 3.97
304.13321 7.67
306.14886 14.01
419.1577 20.92
465.16318 3.7
ENERGY2
79.05423 3.61
100.0393 2.32
102.05495 2.54
105.06988 5.07
128.03422 2.08
128.0706 2.56
130.08626 2.96
154.04742 5.82
155.08553 2.03
167.08553 7.01
177.06988 59.44
179.08553 100.0
181.10118 11.31
183.11683 2.07
185.13248 6.15
187.14813 7.39
197.08962 3.5
225.08454 4.06
241.07945 6.47
253.07945 2.2
278.11756 2.36
304.13321 3.08
306.14886 7.96
308.16451 2.93
309.06928 4.21
399.15148 2.66
401.16713 2.72
END IONS
