BEGIN IONS
ID=CNP0400032
PEPMASS=462.1716
SMILES=O=C1OC2C(O)C(O)C(OC2C=3C(O)=C(OC)C(O)=C(C13)CN4CCCC(C)C4)CO
ENERGY
341.08671 11.22
440.19151 100.0
ENERGY1
83.08553 3.8
84.08078 3.39
96.08078 5.32
100.11208 3.47
110.09643 5.69
112.11208 43.63
237.03936 2.99
269.06558 3.04
276.12303 3.75
320.14925 3.15
323.07614 16.05
325.09179 2.8
334.12851 5.24
336.14416 4.93
338.15981 3.57
341.08671 48.78
343.10236 5.85
366.15473 3.65
368.17038 4.4
378.15473 4.14
380.17038 2.73
408.16529 3.95
410.18094 3.44
422.18094 23.23
440.19151 100.0
ENERGY2
57.03349 16.59
59.04914 20.06
70.06513 19.92
73.02841 34.8
84.08078 23.09
85.02841 20.43
87.04406 38.48
89.05971 24.35
96.08078 16.91
98.09643 26.95
112.11208 88.16
147.06519 33.39
179.03389 49.57
181.04954 21.13
197.04445 16.7
221.04445 16.77
223.0601 24.45
239.05501 28.79
253.07066 17.86
267.04993 51.13
269.06558 100.0
271.08123 15.22
276.12303 21.03
299.07614 19.36
313.09179 19.25
327.07106 26.7
341.08671 56.83
343.10236 17.46
364.13908 30.51
368.17038 51.8
440.19151 23.44
END IONS
