BEGIN IONS
ID=CNP0452167
PEPMASS=462.1716
SMILES=O=C1C(OC2=CC=CC(OC)=C2)=C(OC=3C1=CC=C(O)C3CN4CCN(C)CC4)C(F)(F)F
ENERGY
365.06313 50.22
465.16318 100.0
ENERGY1
113.10732 14.41
337.06822 4.26
365.06313 100.0
465.16318 13.33
ENERGY2
44.04948 25.01
56.04948 15.85
58.06513 15.63
70.06513 45.36
72.08078 10.93
79.05423 9.9
81.03349 10.3
81.06988 11.93
83.04914 8.93
85.07602 8.48
95.04914 14.81
97.06479 15.75
97.07602 9.63
99.08044 6.21
99.09167 36.84
107.04914 23.3
111.04406 12.35
113.10732 100.0
123.04406 63.47
125.05971 41.03
127.07536 9.4
129.09101 6.4
365.06313 46.41
367.07878 8.08
411.15262 9.06
437.16827 10.61
463.14753 7.99
465.16318 16.92
END IONS
