BEGIN IONS
ID=CCMSLIB00009970738
PEPMASS=462.171
SMILES=N/A
ENERGY
109.10251 0.004388065
193.03098 0.010632049
194.03719 0.0041869245
230.03648 0.0063241934
231.04709 0.00761001
232.05182 0.022860881
233.05865 0.0042103706
234.05385 0.0056738816
244.05437 0.018518472
245.0579 0.0070966706
246.05461 0.0053012166
247.0429 0.014607961
257.06104 0.0074310815
258.06848 0.011539031
259.0531 0.004507762
272.08386 0.028191712
273.079 0.0067634936
274.0859 0.0047656656
276.04337 0.012669365
286.1013 0.008292406
290.05902 0.0047582616
300.11743 0.026972532
301.12125 0.005757793
302.1128 0.010892421
314.12643 0.005154372
316.07935 0.006102076
318.09207 0.0050951405
330.092 0.019009601
332.11462 0.0045583555
342.17062 0.0053444062
344.1054 0.0073101507
345.11465 0.0070300354
374.15414 0.41664404
375.15768 0.06622572
376.15173 0.014379674
377.14056 0.025568252
378.1474 0.0073397667
384.1831 0.011377378
385.18845 0.005678817
402.14792 0.010471631
403.15726 0.008288704
420.15958 0.03720477
421.16382 0.0043991706
462.17102 0.08886572
END IONS
