BEGIN IONS
ID=CCMSLIB00009968437
PEPMASS=462.173
SMILES=N/A
ENERGY
92.052185 0.0035844962
118.06775 0.0038249895
120.03796 0.010163708
130.06413 0.011927325
144.08022 0.047079436
145.07191 0.004844223
147.0563 0.0064532384
154.06383 0.025337692
155.07243 0.00460373
156.06772 0.008337103
159.0669 0.006596389
169.07707 0.023058731
171.09024 0.35477924
172.09436 0.03196271
173.08185 0.003739099
183.09312 0.008778008
187.07932 0.0064646904
189.06357 0.008216856
199.08635 0.20724228
200.08717 0.032558218
211.088 0.0043575107
228.07983 0.0643377
229.07538 0.011566585
240.07422 0.010822201
241.07608 0.0038135375
246.08675 0.028607257
256.10898 0.010169433
398.16238 0.0069857594
426.1593 0.011938777
444.1691 0.032226108
445.17343 0.005622964
END IONS
