BEGIN IONS
ID=CNP0205069
PEPMASS=462.1716
SMILES=O=C(OC(=O)C1=C(C)CSC2N1C(=O)C2N=C(O)CC(N)C=3C=CC=CC3)OCC(C)C
ENERGY
55.05423 8.03
57.06988 27.12
148.07569 16.66
158.02703 11.74
177.10224 7.97
203.0815 37.59
205.09715 34.29
207.1128 29.05
256.06381 24.77
258.07946 19.02
316.11142 9.22
327.07979 8.65
344.10634 27.42
345.09035 10.64
362.1169 17.66
389.08018 18.16
406.10673 38.06
434.17442 50.13
445.14278 19.45
462.16933 100.0
ENERGY1
57.06988 9.82
79.05423 10.92
106.06513 100.0
120.08078 37.62
129.03349 12.52
131.04914 79.58
132.08078 7.37
133.06479 10.93
140.01646 21.76
146.06004 7.21
148.07569 45.27
150.09134 36.39
152.01646 12.99
154.03211 12.42
158.02703 30.11
167.02736 11.65
169.04301 7.79
195.02227 9.75
197.03792 8.11
203.0815 8.54
205.09715 15.94
258.07946 12.57
264.08012 7.9
299.08488 44.92
316.11142 72.03
327.07979 8.33
344.10634 14.77
345.09035 10.1
389.08018 9.77
434.17442 11.15
462.16933 13.32
ENERGY2
41.03858 48.9
79.05423 100.0
81.06988 34.59
91.05423 30.81
106.06513 46.85
112.02155 31.83
114.0372 26.46
120.08078 63.57
122.09643 18.95
130.06513 16.34
131.04914 15.58
140.01646 22.43
142.03211 22.66
147.09167 21.1
148.07569 43.08
150.09134 27.67
177.10224 18.59
179.11789 68.47
202.01686 23.51
239.99612 22.23
242.01177 44.39
244.02742 16.2
257.02267 41.83
306.12707 17.19
316.11142 26.12
326.04413 22.34
328.05978 26.66
360.10125 15.51
388.09617 17.97
389.08018 47.39
462.16933 16.67
END IONS
