BEGIN IONS
ID=CNP0004827
PEPMASS=462.1716
SMILES=O=C(N(C)C)CN1C(=O)COC(C2=CC=C(C=C2)NS(=O)(=O)CC=3C=CC=CC3)C1CO
ENERGY
86.06004 7.97
155.01613 3.94
359.106 6.53
377.11657 14.19
389.11657 16.13
417.11148 21.07
444.15877 14.05
462.16933 100.0
ENERGY1
44.04948 38.05
46.06513 11.36
72.04439 16.04
79.05423 10.02
91.05423 37.43
155.01613 31.37
290.14992 9.04
308.16048 6.09
359.106 9.25
370.10673 9.27
371.106 15.37
373.12165 11.37
377.11657 9.58
387.10092 6.14
389.11657 34.2
391.13222 5.79
399.10092 6.11
417.11148 38.72
420.15877 5.62
432.15877 6.43
444.15877 31.31
462.16933 100.0
ENERGY2
46.06513 4.01
67.05423 5.25
72.04439 25.24
77.03858 6.84
79.05423 100.0
81.06988 26.43
85.10118 5.21
91.05423 90.09
93.06988 14.47
94.06513 3.45
101.07094 19.8
139.02121 11.38
145.06816 4.79
157.03178 25.32
186.05833 3.87
218.08117 4.1
220.09682 4.92
275.13902 4.84
290.08454 8.82
290.14992 4.66
304.10019 3.46
359.106 4.18
369.09035 5.01
373.12165 5.09
377.11657 6.2
391.13222 4.06
404.09108 4.73
404.16385 5.1
420.15877 8.11
444.15877 6.58
462.16933 10.84
END IONS
