BEGIN IONS
ID=CNP0317047
PEPMASS=462.1716
SMILES=O=C(OC1COC2C1OCC2NS(=O)(=O)C3=CC=CC4=CC=CN=C43)NC5CCCCC5
ENERGY
337.08527 5.23
462.16933 100.0
ENERGY1
44.01309 18.34
55.05423 5.22
81.06988 6.71
83.08553 26.91
126.09134 7.8
130.06513 14.31
144.10191 11.28
192.01138 16.41
319.0747 18.36
321.09035 5.55
337.08527 28.94
380.09108 11.01
420.12238 9.59
444.15877 10.7
445.14278 5.01
462.16933 100.0
ENERGY2
41.03858 10.4
55.05423 92.63
57.06988 8.55
75.02293 14.34
77.03858 24.38
79.05423 17.74
80.04948 16.68
81.06988 52.41
83.08553 100.0
98.09643 25.48
104.04948 28.16
106.06513 14.22
113.05971 10.42
116.04948 19.28
128.04948 10.55
128.0706 17.23
130.06513 43.37
142.08626 19.21
194.02703 13.95
204.03251 8.98
209.03792 28.57
212.12812 21.16
305.09544 10.39
319.0747 14.88
321.09035 9.94
337.08527 43.58
406.10673 15.53
420.12238 13.5
444.15877 19.73
446.13803 10.33
460.15368 24.61
END IONS
