BEGIN IONS
ID=CNP0106660
PEPMASS=462.1716
SMILES=O=C1OCC2=C1C(OC)=C(C(OC)=C2C)CC=C(C)CCC(=O)NC3=NN=C(S3)COC
ENERGY
430.14312 17.23
462.16933 100.0
ENERGY1
114.01204 39.81
116.02769 12.85
146.03826 26.24
207.06519 12.05
209.08084 8.43
219.06519 10.47
221.08084 25.95
223.09649 47.3
235.09649 11.78
237.11214 8.16
263.12779 7.47
273.11214 17.65
285.11214 18.91
287.12779 9.78
289.14344 55.7
299.12779 15.76
315.1227 9.45
316.15433 14.96
317.13835 100.0
318.1336 12.38
319.154 9.81
334.1649 20.77
378.13697 10.31
402.13697 8.93
416.12747 7.22
418.14312 11.08
430.14312 59.34
432.15877 21.57
434.17442 12.41
444.15877 21.0
462.16933 61.9
ENERGY2
69.06988 51.73
116.02769 100.0
175.07536 15.68
205.04954 33.38
207.06519 15.28
221.08084 81.9
229.04954 18.34
231.06519 22.78
233.08084 24.68
235.09649 31.71
257.08084 15.02
259.09649 20.54
261.11214 25.86
262.06447 46.37
264.08012 29.3
271.09649 22.75
273.11214 19.82
275.12779 14.7
285.11214 17.22
287.12779 16.39
289.14344 27.25
291.15909 17.49
304.07504 16.43
310.12199 14.72
315.1227 20.48
317.13835 44.85
340.11795 16.96
356.09511 18.05
390.13697 14.86
418.14312 23.34
462.16933 15.29
END IONS
