BEGIN IONS
ID=CNP0400286
PEPMASS=462.1716
SMILES=O=C1OC2C(O)C(O)C(OC2C=3C(O)=C(OC)C(O)=C(C13)CN4CCC(C)CC4)CO
ENERGY
341.08671 27.77
440.19151 100.0
ENERGY1
55.05423 4.35
84.08078 5.71
89.05971 4.17
96.08078 9.82
98.09643 7.59
110.09643 7.16
112.11208 73.56
269.06558 4.52
313.09179 6.66
323.07614 32.53
325.09179 4.53
338.15981 4.65
341.08671 95.74
343.10236 8.66
410.18094 4.17
422.18094 23.21
440.19151 100.0
ENERGY2
43.05423 14.0
55.05423 40.97
70.06513 19.56
73.02841 12.1
84.08078 16.99
85.02841 22.32
89.05971 15.9
96.08078 18.62
98.09643 17.05
105.05462 30.42
112.11208 100.0
147.06519 18.95
179.03389 37.85
181.04954 14.3
191.05501 11.85
197.04445 11.68
223.0601 14.72
241.07066 13.72
267.04993 19.17
269.06558 36.27
271.08123 11.99
299.07614 17.83
313.09179 17.79
327.07106 24.56
340.17546 12.61
341.08671 30.91
364.13908 14.99
366.15473 21.83
368.17038 17.19
370.11326 11.97
440.19151 39.77
END IONS
