BEGIN IONS
ID=CNP0007891
PEPMASS=462.1716
SMILES=O=C(NC1=CSC=C1)NCC2OC3CC(OC3C2O)CC(=O)NCC4=CC=C(OC)C=C4
ENERGY
121.06479 11.99
138.09134 9.72
178.08626 5.18
325.08527 7.54
337.1758 57.05
363.15506 5.95
462.16933 100.0
ENERGY1
100.02155 8.09
121.06479 26.57
138.09134 11.59
156.06552 18.19
158.08117 27.08
164.0706 7.94
169.04301 5.69
172.09682 11.49
196.06043 9.55
198.07608 40.47
200.09173 85.13
215.10263 8.65
226.071 8.5
227.10263 7.09
229.11828 21.0
264.12303 6.28
266.13868 6.47
283.0747 7.94
297.09035 6.18
307.0747 10.25
319.16523 13.37
320.14925 13.16
323.06962 6.62
325.08527 94.16
335.16015 29.59
337.1758 100.0
363.15506 6.8
432.15877 5.66
444.15877 21.94
462.16933 79.39
ENERGY2
74.06004 10.63
92.04948 11.96
100.02155 45.42
121.06479 57.01
136.07569 45.98
138.09134 9.89
141.05462 10.87
155.07027 47.07
157.04301 9.54
181.04954 36.92
183.06519 100.0
185.03792 11.19
185.08084 47.02
187.09649 25.08
198.07608 13.31
200.09173 19.37
217.06414 12.56
226.071 10.38
228.08665 12.25
248.12812 11.58
271.0747 21.0
273.09035 9.85
299.106 10.99
320.14925 11.45
325.08527 37.0
327.10092 25.5
329.11657 9.68
418.14312 14.09
444.15877 17.48
460.15368 33.42
462.16933 17.01
END IONS
