BEGIN IONS
ID=CNP0181291
PEPMASS=462.1716
SMILES=O=C1C(C(=O)CC2C3=C(OC)C=4OCOC4C=C3CCN2C)=C(O)N(C(=S)N1CC)CC
ENERGY
222.11247 4.08
462.16933 100.0
ENERGY1
159.05866 3.62
197.00154 4.3
199.01719 8.46
201.03284 17.42
201.06923 4.04
220.09682 15.04
222.11247 8.82
227.04849 26.81
229.06414 26.71
232.09682 3.47
234.11247 14.7
262.10738 9.79
296.10634 4.99
308.10634 3.5
332.11286 6.01
391.13222 3.58
403.09583 14.14
417.11148 4.31
419.12713 8.56
421.14278 3.55
430.14312 7.41
431.12713 30.65
432.15877 6.43
434.13803 44.8
462.16933 100.0
ENERGY2
131.06375 11.18
140.03422 11.6
159.05866 17.41
165.05462 7.33
177.05462 10.86
179.07027 8.48
190.08626 10.1
191.07027 25.01
199.01719 22.58
201.03284 9.4
201.06923 7.88
205.08592 10.85
206.11756 12.43
218.08117 11.21
220.09682 100.0
222.11247 7.55
229.06414 8.94
232.09682 9.21
234.11247 28.15
236.12812 13.95
302.1023 11.83
306.1336 9.58
330.09721 7.91
332.11286 26.69
377.17071 16.83
389.11657 7.94
393.14787 8.27
421.14278 11.15
432.15877 10.19
434.17442 7.08
446.13803 9.9
END IONS
