BEGIN IONS
ID=CNP0076838
PEPMASS=462.1716
SMILES=O=C(OC)C(NC(=O)C1N(CCNC1)S(=O)(=O)C=2C=CC=CC2)CC3=CC=C(OC)C=C3
ENERGY
402.1482 35.15
430.14312 12.26
462.16933 100.0
ENERGY1
77.03858 18.41
85.07602 16.27
91.05423 7.45
93.06988 14.48
111.05529 25.19
113.07094 91.21
121.06479 33.04
123.08044 6.78
128.08184 8.18
133.06479 27.4
141.00048 19.43
200.10297 6.59
225.06923 35.68
227.08488 20.6
253.06414 26.93
258.1237 9.8
260.13935 31.25
262.155 65.04
280.07504 6.38
294.09069 10.1
296.10634 12.29
310.0856 21.28
312.10125 9.15
340.09617 12.68
402.1482 100.0
462.16933 14.7
ENERGY2
65.03858 5.9
77.03858 5.03
79.05423 21.94
81.06988 4.0
85.07602 7.09
91.05423 3.11
111.05529 5.35
113.07094 100.0
115.08659 12.53
127.02121 5.37
128.08184 3.13
133.06479 6.49
135.08044 5.57
141.00048 29.0
150.09134 10.77
191.07027 3.1
197.07431 3.06
227.04849 3.3
233.03792 5.15
233.12845 8.26
239.08488 4.05
249.15975 3.24
255.07979 3.07
262.10738 2.99
262.155 8.7
305.14958 12.62
307.16523 9.71
358.12199 3.2
434.13803 3.2
436.15368 5.91
460.15368 3.45
END IONS
