BEGIN IONS
ID=CNP0027566
PEPMASS=462.1716
SMILES=O=C(NC1CCN2C(=O)C3N(C(=O)C2C1)CC(OCC=C)C3)CS(=O)(=O)C=4C=CC=CC4
ENERGY
444.15877 10.62
462.16933 100.0
ENERGY1
205.09715 7.53
222.1237 16.94
248.10297 35.33
250.11862 48.76
306.14483 8.85
326.08052 11.52
328.09617 21.27
376.13255 8.17
388.13255 8.72
402.11182 17.91
404.12747 100.0
406.14312 45.61
408.15877 8.84
410.17442 14.27
434.17442 7.79
444.15877 9.2
462.16933 86.95
ENERGY2
65.03858 30.36
68.04948 26.72
77.03858 100.0
79.05423 73.12
96.04439 12.68
114.05495 12.44
127.08659 23.29
131.01613 17.05
141.00048 9.86
141.03686 10.81
155.0815 9.56
163.07873 9.33
205.09715 21.87
207.1128 15.1
209.12845 10.71
222.1237 10.57
246.08732 14.88
248.10297 74.49
250.11862 66.63
252.13427 30.6
266.11353 14.19
311.106 10.74
378.11182 18.73
398.13803 9.94
418.10673 16.98
420.12238 12.87
422.13803 18.64
434.17442 15.76
436.15368 13.12
460.15368 16.74
462.16933 13.71
END IONS
