BEGIN IONS
ID=CNP0333380
PEPMASS=462.1716
SMILES=O=C(O)CC1C=2N=C(SC2CC3C(C)(CO)C(O)CCC13C)NC(=O)C4=CC=C(F)C=C4
ENERGY
324.12641 12.44
427.14862 28.41
445.15918 76.63
463.16975 100.0
ENERGY1
123.02407 3.55
347.08602 2.34
361.10167 2.56
385.13805 12.05
399.1537 4.98
403.14862 3.46
405.12788 23.01
407.14353 7.53
417.16427 4.99
427.14862 11.68
433.15918 8.79
435.17483 3.6
445.15918 100.0
461.1541 3.75
463.16975 19.3
ENERGY2
39.02293 8.55
41.03858 8.54
95.02915 25.32
97.0448 15.26
97.06479 7.48
99.08044 10.06
123.02407 49.13
157.12231 9.5
247.03359 13.49
299.06489 6.83
299.13116 8.14
301.08054 12.14
331.0911 9.78
345.10675 7.37
371.1224 19.68
373.13805 17.75
375.1537 8.84
383.1224 14.19
385.13805 14.19
389.13297 7.75
393.16427 8.6
401.09658 11.57
401.16935 9.94
403.14862 9.08
405.12788 21.54
413.13297 7.57
415.14862 23.79
417.16427 11.18
419.17992 9.99
437.1541 15.38
445.15918 100.0
END IONS
