BEGIN IONS
ID=CNP0405730
PEPMASS=462.1716
SMILES=O=C1C(=CC=C2N1CC3CN(C(=O)CCOC)CC2C3)NS(=O)(=O)C4=CC=C(OC)C=C4
ENERGY
376.13255 53.6
462.16933 100.0
ENERGY1
243.1128 8.26
260.13935 8.73
268.07504 7.18
324.10125 11.85
345.09035 5.95
359.106 8.09
361.12165 13.67
376.13255 59.71
418.14312 9.59
430.14312 100.0
432.15877 31.0
434.17442 16.7
462.16933 56.54
ENERGY2
39.02293 17.92
44.04948 21.85
51.02293 26.94
63.02293 28.76
65.03858 50.59
79.05423 54.61
81.03349 9.36
81.06988 54.94
95.04914 9.56
100.07569 10.59
107.04914 100.0
109.06479 51.75
204.11314 19.41
294.09069 10.62
302.05939 17.11
304.07504 18.31
306.09069 9.93
345.09035 10.06
347.106 18.04
348.13764 9.19
360.10125 10.54
361.12165 22.0
374.1169 9.87
376.13255 13.98
388.09617 34.17
390.11182 15.92
392.12747 33.03
394.14312 21.27
408.15877 25.72
430.14312 9.19
436.15368 9.24
END IONS
