BEGIN IONS
ID=CNP0027097
PEPMASS=462.1716
SMILES=O=C(N)C(NC(=O)C1(O)CC(O)C(O)C(NC(=O)CC=2SC=CC2)C1)CC=3C=CC=CC3
ENERGY
120.08078 9.17
148.07569 8.43
150.09134 4.41
165.10224 8.68
191.0815 5.79
252.06889 3.18
270.07946 24.72
320.16048 3.73
321.1445 4.04
338.17105 10.71
417.14787 6.08
444.15877 21.09
445.14278 14.75
462.16933 100.0
ENERGY1
44.01309 36.39
91.05423 32.77
97.01065 54.63
103.05423 23.03
105.06988 16.72
120.08078 63.92
125.00556 14.46
130.06513 23.92
131.04914 52.16
142.03211 43.07
146.06004 28.28
146.08117 26.76
148.07569 100.0
150.09134 19.19
165.10224 25.25
176.0706 16.22
191.0815 9.51
193.09715 10.19
254.08454 34.11
272.09511 18.64
293.14958 11.85
297.09035 10.39
298.07437 17.82
320.16048 28.32
384.12238 12.01
399.1373 28.34
401.15295 44.57
417.14787 17.42
426.1482 16.56
444.15877 57.24
462.16933 32.39
ENERGY2
44.01309 34.36
85.01065 6.26
91.05423 30.93
97.01065 100.0
99.0263 11.38
103.05423 4.87
118.06513 4.43
120.08078 15.97
124.02155 5.86
125.00556 8.58
126.0372 10.16
142.03211 27.78
146.06341 8.08
148.07569 14.38
148.07906 5.13
154.03211 7.55
165.10224 18.52
168.04776 19.93
204.10191 4.12
226.05324 4.45
235.10772 4.42
254.08454 4.97
272.09511 6.3
282.07946 7.04
297.09035 4.65
298.07437 5.06
300.09002 9.94
315.10092 6.51
402.1482 7.29
444.15877 5.47
462.16933 9.04
END IONS
