BEGIN IONS
ID=CNP0028985
PEPMASS=462.1716
SMILES=O=C(OCCCC[P+](C=1C=CC=CC1)(C=2C=CC=CC2)C=3C=CC=CC3)C=4C=CC=CC4
ENERGY
263.09841 25.48
265.11406 10.2
315.12971 16.09
317.14536 22.68
421.17158 31.51
439.18214 100.0
ENERGY1
105.03349 28.59
199.06711 85.67
201.08276 17.74
213.08276 22.56
263.09841 100.0
277.11406 23.84
279.12971 22.03
287.09841 40.27
289.11406 23.4
315.12971 16.8
317.14536 25.7
343.12463 30.21
361.13519 84.6
421.17158 35.74
439.18214 81.93
ENERGY2
79.05423 34.33
105.03349 100.0
187.06711 27.5
199.06711 29.63
209.05146 7.49
235.06711 17.74
251.06203 16.34
263.09841 38.02
279.05694 15.52
341.10898 7.73
355.08824 8.32
END IONS
