BEGIN IONS
ID=CNP0037956
PEPMASS=462.1716
SMILES=O=C(OC1=CC=C2C(OC(=CC3=CC=C(C=C3)CC)C2=O)=C1)N(C=4C=CC=CC4)C=5C=CC=CC5
ENERGY
196.07569 64.47
462.16998 100.0
ENERGY1
170.09643 100.0
196.07569 71.96
267.10157 6.55
293.08084 8.72
444.15942 5.34
462.16998 12.49
ENERGY2
77.03858 20.79
120.04439 22.1
122.06004 4.13
129.06988 8.8
131.08553 9.15
146.06004 4.43
147.08044 4.01
168.08078 100.0
170.09643 27.53
196.07569 20.56
265.08592 22.02
366.11247 4.56
392.09173 5.3
396.12303 8.96
398.13868 11.15
408.12303 6.43
432.12303 4.2
434.17507 10.5
460.15433 33.97
462.16998 15.2
END IONS
