BEGIN IONS
ID=CNP0382225
PEPMASS=462.1716
SMILES=O=C1OC2=C(C=CC=3OCN(C4=CC=C(OCC=5C=CC=CC5)C=C4)CC32)C(=C1)C=6C=CC=CC6
ENERGY
212.10699 1.35
462.16998 100.0
ENERGY1
91.05423 5.34
212.10699 5.78
251.07027 5.79
462.16998 100.0
ENERGY2
77.03858 9.06
91.05423 100.0
93.06988 45.68
104.04948 12.08
106.06513 35.76
108.08078 8.56
109.06479 20.94
120.04439 18.05
134.06004 14.83
197.05971 8.04
212.10699 28.93
223.07536 21.75
235.07536 14.01
251.07027 72.23
265.08592 81.09
318.11247 14.89
328.09682 7.9
372.12303 12.86
384.12303 9.02
410.13868 13.57
418.18016 12.9
432.15942 16.65
434.17507 9.26
436.15433 26.32
462.16998 15.73
END IONS
