BEGIN IONS
ID=CNP0384361
PEPMASS=462.1716
SMILES=O=C1OC2=C(C=C3C(OCN(C4=CC=C(OC=5C=CC=CC5)C=C4)C3)=C2C)C(=C1)C=6C=CC=CC6
ENERGY
384.12303 0.96
462.16998 100.0
ENERGY1
212.10699 11.42
249.05462 9.57
251.07027 7.18
462.16998 100.0
ENERGY2
131.04914 38.85
145.06479 17.09
186.09134 14.9
196.07569 12.39
198.09134 85.99
207.08044 13.96
212.10699 39.47
221.09609 14.88
223.07536 11.9
237.09101 22.93
249.09101 36.62
251.07027 34.17
263.07027 100.0
265.08592 97.72
412.15433 12.1
418.18016 16.08
422.13868 18.52
436.15433 24.79
446.13868 18.55
462.16998 12.27
END IONS
