BEGIN IONS
ID=CNP0276281
PEPMASS=462.1716
SMILES=O=C1C(=CC=C2N1CC3CN(CC2C3)S(=O)(=O)C4=CC=C(OC)C=C4)NC(=O)CCOC
ENERGY
376.13255 100.0
462.16933 89.69
ENERGY1
204.11314 4.87
206.12879 3.84
321.12674 4.59
348.13764 8.09
359.106 5.47
374.1169 4.3
376.13255 100.0
434.17442 5.86
462.16933 17.17
ENERGY2
45.03349 9.6
57.03349 11.07
72.04439 10.33
81.06988 12.65
107.04914 62.14
109.06479 26.18
149.10732 16.34
174.09134 10.76
177.10224 31.29
189.10224 32.22
191.11789 32.72
200.03759 37.66
202.09749 20.84
204.11314 100.0
206.12879 26.8
217.09715 11.69
232.10805 23.88
315.07979 8.67
321.12674 18.33
332.10634 25.62
348.13764 33.42
350.1169 24.26
360.13764 23.1
374.1169 11.75
376.13255 19.19
380.16385 9.19
402.11182 12.53
408.15877 10.94
432.15877 10.12
460.15368 15.77
462.16933 18.48
END IONS
