BEGIN IONS
ID=CCMSLIB00003134607
PEPMASS=561.359
SMILES=CC(=O)N(CCCCCNC(=O)CCC(=O)N(CCCCCNC(=O)CCC(=O)N(CCCCCN)O)O)O
ENERGY
70.07013 0.003085633
76.04272 0.0034040369
84.07979 0.04326548
84.17007 0.0036532776
85.08489 0.01056498
88.04428 0.0022182225
99.085304 0.0027859733
100.03964 0.008697044
102.09113 0.017436776
119.11963 0.0070925415
120.1208 0.003295922
130.05844 0.0025156627
137.10542 0.00305949
138.0949 0.0027720667
144.09944 0.011246492
154.0833 0.011891148
155.08702 0.0031123073
165.09982 0.013698735
166.0891 0.0071650427
168.09938 0.004673819
183.1098 0.009915568
201.12178 0.16351467
202.12503 0.01911721
202.44867 0.0022189075
203.12749 0.0071746837
243.13258 0.17089795
244.13705 0.039619796
244.21606 0.0025620747
245.1379 0.0045783776
283.12836 0.008265749
285.2036 0.0022357337
302.2201 0.0023750816
319.23166 0.09429159
320.23727 0.015004051
320.38815 0.0024387953
361.24487 0.013082441
362.24536 0.0026064094
401.24054 0.019191595
402.23523 0.004757562
443.24924 0.02039786
444.2425 0.005864114
445.26468 0.0031565474
561.3596 0.22109854
END IONS
