BEGIN IONS
ID=CCMSLIB00003136339
PEPMASS=561.36
SMILES=CC(=O)N(CCCCCNC(=O)CCC(=O)N(CCCCCNC(=O)CCC(=O)N(CCCCCN)O)O)O
ENERGY
165.1506 0.009624251
166.17612 0.004114989
183.23067 0.012009072
201.16628 0.14448725
202.20712 0.012499173
243.17566 0.21283413
244.258 0.018744556
283.1972 0.0045019328
284.22308 0.003250321
319.27472 0.2123177
320.28735 0.029104685
361.29324 0.10107255
362.36676 0.016850464
383.29828 0.0026680944
401.28394 0.046634678
402.29834 0.009627066
443.26022 0.13526696
444.26602 0.021096207
484.37076 0.003295916
END IONS
