BEGIN IONS
ID=CCMSLIB00000079678
PEPMASS=561.361
SMILES=CC(=O)N(O)CCCCCNC(=O)CCC(=O)N(O)CCCCCNC(=O)CCC(=O)N(O)CCCCCN
ENERGY
99.194664 0.0019632652
100.03917 0.008725623
100.50128 0.0018760089
100.91984 0.0020505213
101.0257 0.0020505213
102.091125 0.0395707
102.37311 0.0044500674
103.09807 0.007896689
103.75355 0.0020941494
105.958115 0.0037083896
106.59885 0.0018760089
110.07778 0.0029667118
110.859344 0.001919637
111.00189 0.00231229
112.044304 0.010907029
112.120674 0.0028358274
112.323456 0.0031412242
112.64774 0.0018323808
113.61306 0.0020505213
113.8699 0.001919637
114.58159 0.0019632652
115.08372 0.0020505213
116.032394 0.0021377776
119.116615 0.006107936
119.29792 0.0026176868
119.53274 0.0026176868
119.90957 0.0020941494
120.10378 0.0032284805
121.08496 0.0021814057
121.67481 0.0019632652
121.767044 0.0026176868
123.572784 0.0039265305
124.736694 0.001919637
126.0931 0.0025304307
126.893234 0.002268662
127.19609 0.0018323808
127.49256 0.0018323808
128.95297 0.0024431744
130.05144 0.0048863487
131.98538 0.0020941494
133.63286 0.003446621
133.98701 0.0033157368
135.55588 0.001919637
135.70654 0.002268662
137.10568 0.007940317
138.09169 0.011954104
139.09264 0.003839274
139.86966 0.0018760089
140.07921 0.00833297
140.71361 0.0018760089
143.99774 0.0018760089
144.10184 0.0532263
145.10594 0.008376597
153.75456 0.002355918
154.08604 0.011212425
154.60484 0.0034902492
155.10127 0.0030103398
156.09842 0.004057415
156.84935 0.0019632652
157.3283 0.0024431744
160.19719 0.0019632652
160.30553 0.001919637
161.12639 0.0020068933
161.4921 0.001919637
161.6492 0.002704943
164.19012 0.0037083896
165.10216 0.015793378
166.09497 0.0085511105
167.02208 0.00231229
168.1023 0.0063260766
169.96207 0.00231229
170.601 0.00231229
175.00945 0.0029667118
175.59444 0.0020941494
176.46321 0.0020941494
177.65498 0.0018760089
177.81685 0.001919637
181.64844 0.0021377776
181.85506 0.002268662
183.1113 0.010034466
184.09583 0.01134331
185.10722 0.0046682083
187.30077 0.0025304307
187.3934 0.0028358274
188.56406 0.0020505213
190.23764 0.0018760089
196.55087 0.0020068933
196.78531 0.0018760089
199.07579 0.001919637
200.98047 0.0039265305
201.12251 0.17918067
201.79016 0.0038829022
202.12828 0.026133241
203.1151 0.0032721085
203.46364 0.0018760089
204.82008 0.0025304307
211.33704 0.0020941494
212.97496 0.0020505213
216.50105 0.0018323808
221.57262 0.0021814057
223.87532 0.0020068933
225.07108 0.0019632652
225.98569 0.001919637
232.81941 0.003097596
234.05098 0.0020068933
237.1253 0.0020941494
239.13728 0.0020505213
242.89734 0.0020505213
243.06944 0.0020941494
243.1329 0.14030801
243.50117 0.0018760089
244.13359 0.018760089
244.2003 0.0020068933
245.13608 0.0034902492
251.82655 0.002355918
256.37927 0.0018760089
257.08405 0.0018760089
261.41345 0.0019632652
275.56595 0.0020068933
279.5649 0.0021377776
283.13223 0.010514376
301.1527 0.0039701583
302.13974 0.0020505213
314.18607 0.0020505213
319.00226 0.0018760089
319.23257 0.039876096
320.23907 0.013393831
321.23752 0.0037083896
339.24902 0.0018323808
360.25467 0.001919637
361.2444 0.008681995
362.249 0.0031412242
363.26797 0.0020068933
382.60333 0.0024431744
383.2327 0.0038829022
384.22888 0.002355918
399.22244 0.0020068933
401.2357 0.006893242
402.24197 0.0040137866
407.02466 0.0020941494
442.68304 0.0018323808
443.2447 0.008681995
444.26016 0.004711836
446.2707 0.002268662
456.8779 0.0018760089
501.36346 0.0018760089
557.6015 0.0018760089
561.35596 0.024693513
END IONS
