BEGIN IONS
ID=CCMSLIB00000848497
PEPMASS=561.36
SMILES=CC(=O)N(O)CCCCCNC(=O)CCC(=O)N(O)CCCCCNC(=O)CCC(=O)N(O)CCCCCN
ENERGY
84.07857 0.027575182
85.08727 0.0065324074
88.03836 0.007186461
100.038635 0.016445445
102.090836 0.10066529
103.09465 0.005013054
112.04324 0.007857441
137.10686 0.0058783544
138.08908 0.007522289
140.07487 0.0048634205
144.10143 0.083206266
145.10405 0.0068811006
154.08578 0.01200384
165.10179 0.013785222
168.10236 0.0064233984
183.11159 0.00720745
184.09714 0.0077538486
201.12297 0.14211304
202.12555 0.011414786
243.13339 0.10896757
244.1357 0.011127707
283.12967 0.0043204078
319.2337 0.0481677
320.2357 0.005676586
361.24405 0.0063983467
401.24048 0.012306493
443.2503 0.02450059
444.2557 0.004162649
561.36066 0.29404366
END IONS
