BEGIN IONS
ID=CCMSLIB00009969763
PEPMASS=561.361
SMILES=N/A
ENERGY
84.07983 0.07554389
100.03978 0.033995494
102.09232 0.06044004
112.03973 0.007094479
119.11848 0.011585184
122.09678 0.00326847
137.10747 0.0051720683
138.09132 0.010094487
144.10207 0.042012446
154.08615 0.018555218
165.10213 0.025863605
166.08621 0.0040895045
176.03844 0.003581174
183.1135 0.012032786
201.12347 0.24544226
240.50974 0.0026966776
243.13406 0.14831305
283.12888 0.004570429
319.23438 0.055761065
361.24597 0.0053133443
401.24008 0.010977519
443.25 0.013239925
561.3609 0.20035687
END IONS
