BEGIN IONS
ID=CCMSLIB00009945883
PEPMASS=561.36
SMILES=N/A
ENERGY
165.1286 0.010866761
166.20743 0.0031888995
183.13756 0.0133378655
201.13449 0.17094631
243.21927 0.23080347
283.13095 0.0061321813
301.25323 0.0026110222
319.28918 0.2501337
361.2616 0.10157935
383.35178 0.0026055514
401.25357 0.062211383
443.24838 0.13863422
484.4343 0.003766643
543.2793 0.0031825888
END IONS
