BEGIN IONS
ID=CCMSLIB00005435927
PEPMASS=561.361
SMILES=CC(=O)N(CCCCCNC(=O)CCC(=O)N(CCCCCNC(=O)CCC(=O)N(CCCCCN)O)O)O
ENERGY
70.06551 0.00925246
72.06713 0.0044550723
76.039536 0.0038354823
82.06506 0.002249931
84.078926 0.10480387
85.088394 0.00699436
86.09657 0.011122623
88.03938 0.0080950875
100.03934 0.0468915
102.0914 0.11251791
110.08029 0.0035683946
112.039345 0.009596889
119.11794 0.006612782
120.08087 0.0044598863
122.09633 0.0061652237
129.10194 0.003422427
130.06496 0.004769716
137.10736 0.011841713
138.09132 0.015086832
140.07045 0.0038177136
144.10202 0.053970985
154.0864 0.021526061
159.09163 0.0030160805
165.10239 0.029489014
166.08629 0.0047352468
168.10199 0.005572878
183.11288 0.011302819
184.09656 0.0030408043
201.12338 0.20180728
243.13405 0.10391586
283.12878 0.0028623838
319.23398 0.041709233
361.24417 0.0056583136
401.23987 0.008412384
443.25 0.011671067
561.36176 0.11174978
END IONS
