BEGIN IONS
ID=CCMSLIB00000223884
PEPMASS=561.361
SMILES= 
ENERGY
62.534695 0.0028288867
100.0393 0.015225391
101.03735 0.0029668813
102.09149 0.09452622
103.089005 0.0056347745
110.09005 0.0030588775
112.047165 0.012097516
119.11762 0.0055657774
121.083336 0.0038868445
129.10532 0.0030358785
136.06732 0.0032428703
137.10284 0.009613615
138.09048 0.012718491
139.07573 0.0030588775
140.06744 0.007405704
144.10196 0.11674333
145.1018 0.0073137074
154.08583 0.024862006
155.09662 0.0036798527
156.10027 0.0036108557
165.10043 0.031807728
166.09676 0.008440662
168.10114 0.01451242
169.1106 0.0030588775
183.11176 0.012879485
184.09608 0.0049908003
201.12292 0.27686292
202.12476 0.024862006
203.12276 0.0032658693
243.13353 0.14404324
244.13539 0.019204231
283.12775 0.010418584
319.2337 0.038891446
320.23297 0.0050137993
361.2424 0.008302668
362.2388 0.0034038639
383.2231 0.002851886
401.23904 0.015685372
402.23642 0.003150874
443.2476 0.008164673
444.25665 0.0034268629
561.35657 0.015685372
END IONS
