BEGIN IONS
ID=CCMSLIB00001059065
PEPMASS=561.36
SMILES=CC(=O)N(O)CCCCCNC(=O)CCC(=O)N(O)CCCCCNC(=O)CCC(=O)N(O)CCCCCN
ENERGY
243.13387 0.049817916
319.23386 0.15091357
320.23724 0.02112814
361.24448 0.06622542
362.2478 0.01093156
401.23938 0.0806057
402.2427 0.016339155
443.24994 0.0730701
444.25327 0.015206584
560.35284 0.03586861
561.36066 0.47989324
END IONS
