BEGIN IONS
ID=CCMSLIB00000223883
PEPMASS=561.361
SMILES= 
ENERGY
46.358265 0.004991478
51.897194 0.004991478
52.81797 0.004382761
54.1631 0.003287071
57.308296 0.006330655
60.139133 0.0047479915
61.284054 0.0028000975
65.06233 0.0054784515
66.914955 0.003652301
66.98817 0.0058436817
67.05165 0.002678354
67.76505 0.0045045046
70.147575 0.0048697344
71.529915 0.0037740443
72.29374 0.0047479915
74.60958 0.0020696372
76.043655 0.0057219383
76.20152 0.004626248
76.31786 0.006695885
79.087105 0.0038957878
80.45991 0.004382761
80.69194 0.0052349647
81.965096 0.0047479915
84.29101 0.0071828584
84.45539 0.006087168
85.02648 0.006695885
86.21874 0.0017044072
87.916405 0.0052349647
88.809845 0.006574142
88.9842 0.005600195
93.07032 0.007304602
93.3948 0.006087168
93.508194 0.0057219383
94.19012 0.006574142
94.24222 0.0062089115
94.52812 0.004626248
94.84157 0.0064523984
95.24672 0.0047479915
99.851746 0.004261018
100.04085 0.03981008
101.02939 0.011930849
101.65 0.0029218409
102.03931 0.0045045046
102.093895 0.12527393
102.517914 0.005356708
103.09532 0.004626248
103.28237 0.0017044072
103.59179 0.003287071
103.69909 0.002678354
104.09836 0.0037740443
104.61837 0.0021913806
105.686806 0.0031653275
106.86343 0.0052349647
110.08116 0.008035062
112.05215 0.022279035
116.032616 0.02057463
119.12171 0.012052593
120.080414 0.0116873635
120.902084 0.0059654247
121.18428 0.0035305575
122.0988 0.0038957878
122.99911 0.0020696372
124.07986 0.003043584
128.04027 0.0074263453
128.57632 0.0074263453
130.06252 0.006330655
132.486 0.004626248
134.62308 0.0017044072
136.28702 0.003287071
137.10876 0.016191868
138.09204 0.037740443
139.08922 0.0047479915
139.29779 0.005356708
140.01236 0.0051132212
140.06648 0.0034088143
140.25246 0.002678354
141.13457 0.004626248
142.06403 0.006574142
142.56973 0.006087168
144.1016 0.02495739
144.42528 0.0019478939
145.10803 0.010713416
146.19662 0.0059654247
148.07857 0.0074263453
150.08337 0.006087168
154.0892 0.005600195
154.19885 0.003287071
154.27493 0.006695885
154.79451 0.001339177
155.05933 0.0019478939
155.69138 0.0041392744
156.0977 0.009982956
157.9249 0.0047479915
158.23239 0.0037740443
161.12515 0.006330655
165.10051 0.013148284
166.08952 0.0047479915
167.10541 0.005600195
168.09756 0.009130753
168.19191 0.0015826637
169.0688 0.01083516
176.38153 0.0024348672
177.03178 0.0017044072
183.11356 0.006330655
184.09392 0.009009009
184.91454 0.0062089115
185.09573 0.0068176286
186.39384 0.0021913806
187.89268 0.0028000975
189.41942 0.0075480887
196.4233 0.006087168
197.0955 0.0058436817
199.42496 0.007061115
200.90192 0.005600195
201.11958 0.034088142
201.83308 0.0020696372
202.15526 0.006330655
202.93916 0.006695885
203.41817 0.003287071
206.05281 0.002313124
206.89285 0.004017531
221.93521 0.0037740443
222.03001 0.005356708
224.91338 0.0048697344
226.92781 0.004382761
232.96432 0.006574142
233.90005 0.005600195
234.9687 0.0071828584
236.94188 0.0047479915
237.92542 0.0048697344
243.12788 0.0047479915
244.87971 0.0014609204
251.91843 0.0064523984
261.0096 0.0017044072
265.02777 0.004382761
269.91882 0.009009009
270.4189 0.005356708
272.48944 0.0018261505
322.76993 0.0017044072
336.88568 0.0024348672
337.88644 0.004626248
390.80344 0.0020696372
END IONS
