BEGIN IONS
ID=CCMSLIB00009943622
PEPMASS=561.36
SMILES=N/A
ENERGY
84.081 0.039298072
100.04 0.010904953
102.092 0.032640364
144.102 0.03246909
165.103 0.021969324
183.11 0.016356999
201.123 0.27743268
202.127 0.016918559
243.134 0.2667529
244.138 0.024508502
283.131 0.0062765665
319.236 0.14448842
320.239 0.01702846
361.25 0.024345903
401.242 0.032261938
402.245 0.0032230606
443.254 0.03312422
END IONS
