BEGIN IONS
ID=CCMSLIB00003135047
PEPMASS=561.36
SMILES=CC(=O)N(CCCCCNC(=O)CCC(=O)N(CCCCCNC(=O)CCC(=O)N(CCCCCN)O)O)O
ENERGY
84.08122 0.06560411
100.03974 0.013560614
102.09153 0.028702488
119.11804 0.009648788
144.10208 0.037521303
154.08607 0.014415903
165.10182 0.028911572
183.11282 0.025595635
201.12276 0.36308944
243.13573 0.26414922
283.12933 0.004782331
319.2364 0.07906474
361.24106 0.012468126
401.24088 0.02222669
443.24985 0.004851486
561.3582 0.025407627
END IONS
