BEGIN IONS
ID=CCMSLIB00003139590
PEPMASS=561.358
SMILES=CC(=O)N(CCCCCNC(=O)CCC(=O)N(CCCCCNC(=O)CCC(=O)N(CCCCCN)O)O)O
ENERGY
84.07967 0.019238373
100.03953 0.0073804795
102.09318 0.00769027
112.03826 0.0065655676
119.11744 0.008851786
144.10504 0.0077591375
183.1084 0.012120991
201.12138 0.10476261
202.12477 0.011179418
243.1323 0.14722148
244.139 0.018353526
245.13748 0.0057151164
319.2327 0.089163035
320.23157 0.010022792
361.2445 0.011173632
362.24957 0.005753618
401.24127 0.009386395
443.24747 0.03505491
444.25797 0.010751517
561.3585 0.47185528
END IONS
