BEGIN IONS
ID=CCMSLIB00009945875
PEPMASS=561.359
SMILES=N/A
ENERGY
165.05913 0.010294678
166.08289 0.004346615
183.08504 0.014257874
201.11899 0.15837687
243.10553 0.21468364
283.12436 0.005312963
284.24066 0.00281995
319.23798 0.24864864
361.239 0.11501445
383.18335 0.0033507997
401.2268 0.060673106
443.22577 0.15835275
484.2558 0.003867671
END IONS
