BEGIN IONS
ID=NPA009012
PEPMASS=561.3603
SMILES=CC(=O)N(CCCCCNC(=O)CCC(=O)N(CCCCCNC(=O)CCC(=O)N(CCCCCN)O)O)O
ENERGY
86.09643 5.0
119.11789 4.71
201.12337 2.98
286.21252 13.0
319.23398 7.09
443.25003 3.07
468.31805 4.0
486.32861 63.24
501.33951 4.5
519.35007 9.7
543.35007 12.16
544.33409 6.15
561.36064 100.0
ENERGY1
69.06988 9.5
86.09643 34.39
88.11208 7.45
101.10732 6.51
112.07569 7.81
119.11789 22.76
126.09134 10.49
140.10699 8.85
201.12337 31.23
286.21252 44.12
301.22342 6.61
319.23398 24.62
345.21325 6.09
368.218 5.96
371.2289 6.87
375.2602 6.52
383.2289 12.87
385.24455 5.99
401.23946 87.89
403.25511 10.89
430.26601 7.5
468.31805 27.2
469.30206 16.17
472.31296 11.28
474.32861 5.78
486.32861 100.0
501.33951 10.22
519.35007 8.69
543.35007 32.11
544.33409 6.68
561.36064 23.02
ENERGY2
41.03858 3.67
43.01784 4.32
58.06513 5.01
69.06988 12.04
80.04948 3.55
82.06513 7.35
84.08078 14.72
86.09643 38.06
100.07569 7.45
115.08659 3.72
116.03422 6.71
117.10224 31.38
118.04987 5.4
119.11789 31.13
130.04987 3.83
144.10191 6.09
184.09682 4.91
185.12845 3.59
199.10772 5.15
201.12337 100.0
203.13902 29.91
230.14992 4.46
271.20162 5.1
286.21252 14.34
319.23398 6.05
385.24455 12.5
401.23946 11.25
403.25511 22.43
432.28166 3.71
458.26092 5.42
474.32861 3.72
END IONS
